Version identifier: 22.1.0.0 | 2022-03-09 | 1a383f8ce
CPXPARAM_Threads                                 1
CPXPARAM_MIP_Strategy_VariableSelect             3
CPXPARAM_TimeLimit                               598.58948426699999
1 of 1 MIP starts provided solutions.
MIP start 'm1' defined initial solution with objective 187.0000.
Tried aggregator 1 time.
MIP Presolve eliminated 13 rows and 0 columns.
MIP Presolve modified 1 coefficients.
Reduced MIP has 1410 rows, 4800 columns, and 61324 nonzeros.
Reduced MIP has 4800 binaries, 0 generals, 0 SOSs, and 0 indicators.
Presolve time = 0.04 sec. (30.77 ticks)
Probing time = 0.00 sec. (5.71 ticks)
Tried aggregator 1 time.
Detecting symmetries...
Reduced MIP has 1410 rows, 4800 columns, and 61324 nonzeros.
Reduced MIP has 4800 binaries, 0 generals, 0 SOSs, and 0 indicators.
Presolve time = 0.04 sec. (34.98 ticks)
Probing time = 0.00 sec. (5.71 ticks)
Clique table members: 795.
MIP emphasis: balance optimality and feasibility.
MIP search method: dynamic search.
Parallel mode: none, using 1 thread.
Root relaxation solution time = 0.69 sec. (723.70 ticks)

        Nodes                                         Cuts/
   Node  Left     Objective  IInf  Best Integer    Best Bound    ItCnt     Gap

*     0+    0                          187.0000     4800.0000              --- 
      0     0      200.0000   838      187.0000      200.0000     3556    6.95%
      0     0      200.0000   331      187.0000       Cuts: 6     4326    6.95%
      0     0      200.0000   370      187.0000      Cuts: 11     5088    6.95%
      0     0      200.0000   678      187.0000      Cuts: 29     9440    6.95%
*     0+    0                          189.0000      200.0000             5.82%
      0     0        cutoff            189.0000      200.0000     9440    5.82%
Detecting symmetries...
      0     2      200.0000   275      189.0000      200.0000     9440    5.82%
Elapsed time = 31.16 sec. (33506.22 ticks, tree = 0.01 MB, solutions = 2)
      1     1        cutoff            189.0000      200.0000    11512    5.82%
      2     2      200.0000   635      189.0000      200.0000    15350    5.82%
      3     3      200.0000   408      189.0000      200.0000    16485    5.82%
      4     4      200.0000   417      189.0000      200.0000    23349    5.82%
      5     5      200.0000   404      189.0000      200.0000    23513    5.82%
      6     6      200.0000   349      189.0000      200.0000    27311    5.82%
      7     7      200.0000   342      189.0000      200.0000    29512    5.82%
      8     8      200.0000   412      189.0000      200.0000    30759    5.82%
      9     9      200.0000   366      189.0000      200.0000    37838    5.82%
     10    10      200.0000   367      189.0000      200.0000    38427    5.82%
Elapsed time = 40.17 sec. (43196.63 ticks, tree = 0.04 MB, solutions = 2)
     11    11      199.9169   547      189.0000      200.0000    48258    5.82%
     13    13      199.9668   635      189.0000      200.0000    60793    5.82%
     14    14      200.0000   341      189.0000      200.0000    69189    5.82%
     15    15      200.0000   319      189.0000      200.0000    80940    5.82%
     16    16      200.0000   310      189.0000      200.0000    86965    5.82%
     17    17      200.0000   281      189.0000      200.0000    91098    5.82%
     18    18      200.0000   366      189.0000      200.0000    97043    5.82%
     19    19      200.0000   376      189.0000      200.0000   100737    5.82%
     20    20      200.0000   359      189.0000      200.0000   100900    5.82%
     23    22      200.0000   360      189.0000      200.0000   104500    5.82%
Elapsed time = 59.52 sec. (63938.75 ticks, tree = 0.09 MB, solutions = 2)
     25    24      200.0000   362      189.0000      200.0000   110800    5.82%
     26    25      199.8711   499      189.0000      200.0000   115374    5.82%
     27    26      199.9226   558      189.0000      200.0000   121560    5.82%
     28    26      200.0000   474      189.0000      200.0000   125872    5.82%
     31    29      200.0000   440      189.0000      200.0000   127153    5.82%
     33    31      199.7937   606      189.0000      200.0000   133736    5.82%
     35    33      200.0000   459      189.0000      200.0000   136555    5.82%
     38    36      200.0000   460      189.0000      200.0000   145855    5.82%
     41    38      200.0000   390      189.0000      200.0000   149467    5.82%
     44    41      199.6945   462      189.0000      200.0000   153357    5.82%
Elapsed time = 72.24 sec. (77314.49 ticks, tree = 0.31 MB, solutions = 2)
     48    43    infeasible            189.0000      200.0000   157144    5.82%
     52    47      200.0000   265      189.0000      200.0000   162596    5.82%
     55    50      200.0000   356      189.0000      200.0000   169509    5.82%
     59    54      200.0000   257      189.0000      200.0000   172230    5.82%
     61    56      200.0000   285      189.0000      200.0000   180737    5.82%
     64    59      200.0000   304      189.0000      200.0000   188013    5.82%
     67    62      200.0000   261      189.0000      200.0000   193562    5.82%
     69    64      200.0000   257      189.0000      200.0000   199542    5.82%
     72    67      200.0000   247      189.0000      200.0000   205597    5.82%
     73    68      199.6517   419      189.0000      200.0000   216750    5.82%
Elapsed time = 84.03 sec. (90014.04 ticks, tree = 0.65 MB, solutions = 2)
     75    70      199.6753   367      189.0000      200.0000   222509    5.82%
     76    71      200.0000   381      189.0000      200.0000   228465    5.82%
     79    74      200.0000   327      189.0000      200.0000   235957    5.82%
     81    76      200.0000   365      189.0000      200.0000   246705    5.82%
     85    79      200.0000   358      189.0000      200.0000   255245    5.82%
     88    81      199.6918   308      189.0000      200.0000   268829    5.82%
     92    83      200.0000   290      189.0000      200.0000   280965    5.82%
     95    86      200.0000   261      189.0000      200.0000   296478    5.82%
     96    87      199.9570   300      189.0000      200.0000   314221    5.82%
     98    89      200.0000   231      189.0000      200.0000   318646    5.82%
Elapsed time = 96.86 sec. (102103.97 ticks, tree = 0.92 MB, solutions = 2)
    101    91      200.0000   180      189.0000      200.0000   320509    5.82%
    104    93      199.9609   358      189.0000      200.0000   327621    5.82%
    107    95      199.9609   357      189.0000      200.0000   332452    5.82%
    110    98      199.9609   362      189.0000      200.0000   333472    5.82%
    112   100      199.8729   354      189.0000      200.0000   335424    5.82%
    116   102      199.8307   340      189.0000      200.0000   338546    5.82%
    121   106      199.8307   326      189.0000      200.0000   340370    5.82%
    127   112      199.8307   337      189.0000      200.0000   341908    5.82%
    132   117      199.6761   323      189.0000      200.0000   343943    5.82%
    136   120      199.6761   334      189.0000      200.0000   346622    5.82%
Elapsed time = 107.96 sec. (113822.77 ticks, tree = 1.33 MB, solutions = 2)
    140   124      199.8300   351      189.0000      200.0000   348329    5.82%
    146   130      199.7486   344      189.0000      200.0000   350799    5.82%
    151   132      199.7063   364      189.0000      200.0000   353069    5.82%
    156   134      199.8176   359      189.0000      200.0000   354585    5.82%
    161   139      199.8015   318      189.0000      200.0000   356904    5.82%
    167   144      199.5737   295      189.0000      200.0000   359869    5.82%
    173   150      199.5737   324      189.0000      200.0000   361447    5.82%
    178   153      199.8015   343      189.0000      200.0000   363240    5.82%
    182   157      199.8015   359      189.0000      200.0000   365837    5.82%
    186   160      199.3764   356      189.0000      200.0000   368616    5.82%
Elapsed time = 117.81 sec. (124409.27 ticks, tree = 1.84 MB, solutions = 2)
    193   163      199.4393   368      189.0000      200.0000   371304    5.82%
    199   168      199.2930   363      189.0000      200.0000   374175    5.82%
    203   171      199.8015   357      189.0000      200.0000   375768    5.82%
    208   174      199.8015   383      189.0000      200.0000   378020    5.82%
    214   179      199.8015   363      189.0000      200.0000   379915    5.82%
    220   184      199.7285   344      189.0000      200.0000   382299    5.82%
    226   187      199.4707   317      189.0000      200.0000   385306    5.82%
    232   191      199.4323   355      189.0000      200.0000   388146    5.82%
    238   196      199.7105   323      189.0000      200.0000   390704    5.82%
    244   201      199.7105   339      189.0000      200.0000   393093    5.82%
Elapsed time = 128.37 sec. (135715.98 ticks, tree = 2.38 MB, solutions = 2)
    251   207      199.5200   379      189.0000      200.0000   395109    5.82%
    257   210      199.6177   373      189.0000      200.0000   396663    5.82%
    260   213      199.6177   378      189.0000      200.0000   398079    5.82%
    266   218      199.2504   359      189.0000      200.0000   401311    5.82%
    272   224      198.8750   361      189.0000      200.0000   403471    5.82%
    278   229      199.4539   331      189.0000      200.0000   405399    5.82%
    282   232      199.2422   361      189.0000      200.0000   406809    5.82%
    288   235      199.6162   394      189.0000      200.0000   409070    5.82%
    293   239      199.3523   299      189.0000      200.0000   411885    5.82%
    298   243      199.5869   381      189.0000      200.0000   413491    5.82%
Elapsed time = 138.48 sec. (146512.96 ticks, tree = 2.92 MB, solutions = 2)
    303   247      199.4944   358      189.0000      200.0000   415815    5.82%
    309   253      199.5340   382      189.0000      200.0000   417333    5.82%
    315   255      198.8750   350      189.0000      200.0000   419901    5.82%
    322   262      199.5326   390      189.0000      200.0000   421233    5.82%
    328   266      199.1571   348      189.0000      200.0000   423847    5.82%
    335   273      199.5326   387      189.0000      200.0000   425649    5.82%
    341   278      199.3617   339      189.0000      200.0000   428214    5.82%
    348   285      198.8750   335      189.0000      200.0000   430122    5.82%
    354   291      198.8750   347      189.0000      200.0000   432462    5.82%
    373   306      199.4000   308      189.0000      200.0000   440423    5.82%
Elapsed time = 151.35 sec. (160138.71 ticks, tree = 3.75 MB, solutions = 2)
    396   323      199.3042   344      189.0000      200.0000   450818    5.82%
    422   342      199.2617   374      189.0000      200.0000   457692    5.82%
    451   369      198.7804   310      189.0000      200.0000   465586    5.82%
    475   389      199.5400   381      189.0000      200.0000   475292    5.82%
    477   391      199.9827   470      189.0000      200.0000   491013    5.82%
*   478+  390                          190.0000      200.0000             5.26%
    479   393      199.9827   439      190.0000      200.0000   506047    5.26%
    480   394      199.9827   404      190.0000      200.0000   506744    5.26%
    491   403    infeasible            190.0000      200.0000   515037    5.26%
    504   416      199.9827   434      190.0000      200.0000   523536    5.26%
    517   428      199.9814   422      190.0000      200.0000   530423    5.26%
Elapsed time = 207.07 sec. (214912.15 ticks, tree = 5.35 MB, solutions = 3)
    528   438      199.9026   404      190.0000      200.0000   539743    5.26%
    543   450      199.9814   429      190.0000      200.0000   548112    5.26%
    559   465      199.9814   401      190.0000      200.0000   556082    5.26%
    569   473      199.9814   416      190.0000      200.0000   561651    5.26%
    584   486      199.9428   385      190.0000      200.0000   570974    5.26%

Performing restart 1

Repeating presolve.
Tried aggregator 1 time.
MIP Presolve eliminated 0 rows and 1 columns.
Reduced MIP has 1410 rows, 4799 columns, and 61302 nonzeros.
Reduced MIP has 4799 binaries, 0 generals, 0 SOSs, and 0 indicators.
Presolve time = 0.04 sec. (30.23 ticks)
Tried aggregator 1 time.
Reduced MIP has 1410 rows, 4799 columns, and 61302 nonzeros.
Reduced MIP has 4799 binaries, 0 generals, 0 SOSs, and 0 indicators.
Presolve time = 0.04 sec. (36.09 ticks)
Represolve time = 0.30 sec. (226.59 ticks)
    588     0      200.0000   405      190.0000      Cuts: 11   585962    5.26%
    588     0      200.0000   540      190.0000      Cuts: 13   592170    5.26%
    588     0      200.0000   576      190.0000      Cuts: 22   601917    5.26%
    588     0      200.0000   429      190.0000      Cuts: 17   606912    5.26%
    588     0      200.0000   477      190.0000      Cuts: 10   612281    5.26%
    588     0      200.0000   576      190.0000      Cuts: 51   618546    5.26%
    588     2      200.0000   397      190.0000      200.0000   618546    5.26%
    590     4      200.0000   535      190.0000      200.0000   633031    5.26%
    595     7      200.0000   457      190.0000      200.0000   655984    5.26%
    598     8        cutoff            190.0000      200.0000   668221    5.26%
    600    10      200.0000   389      190.0000      200.0000   678447    5.26%
Elapsed time = 328.63 sec. (350415.47 ticks, tree = 0.02 MB, solutions = 3)
    604    14      200.0000   412      190.0000      200.0000   688956    5.26%
    607    17      200.0000   414      190.0000      200.0000   701939    5.26%
    609    19      200.0000   560      190.0000      200.0000   713643    5.26%
    610    20      200.0000   434      190.0000      200.0000   729404    5.26%
    614    24      199.9380   734      190.0000      200.0000   743056    5.26%
    619    29      199.9380   811      190.0000      200.0000   757417    5.26%
    622    32      200.0000   414      190.0000      200.0000   768531    5.26%
    627    37      200.0000   363      190.0000      200.0000   787536    5.26%
    630    40      200.0000   334      190.0000      200.0000   808650    5.26%
    632    42      199.7734   608      190.0000      200.0000   832808    5.26%
Elapsed time = 371.14 sec. (396880.44 ticks, tree = 0.10 MB, solutions = 3)
    636    46      199.7793   569      190.0000      200.0000   857350    5.26%
    642    52      200.0000   466      190.0000      200.0000   873189    5.26%
    648    58      200.0000   424      190.0000      200.0000   881204    5.26%
    654    64      200.0000   446      190.0000      200.0000   913748    5.26%
    658    67      199.7793   536      190.0000      200.0000   939967    5.26%
    666    72      199.8750   384      190.0000      200.0000   949707    5.26%
    668    73      200.0000   204      190.0000      200.0000   961771    5.26%
    675    78      199.7000   452      190.0000      200.0000   979499    5.26%
    678    80      200.0000   172      190.0000      200.0000  1001474    5.26%
    681    83      199.9086   318      190.0000      200.0000  1017860    5.26%
Elapsed time = 415.54 sec. (444990.85 ticks, tree = 0.21 MB, solutions = 3)
    684    86      199.7000   380      190.0000      200.0000  1034831    5.26%
    687    89      200.0000   154      190.0000      200.0000  1049593    5.26%
    688    90      199.9957   456      190.0000      200.0000  1055909    5.26%
    696    96      199.0000   448      190.0000      200.0000  1071128    5.26%
    701    97      199.0000   402      190.0000      200.0000  1088968    5.26%
    707   101      199.0000   364      190.0000      200.0000  1102002    5.26%
    708   102      198.9375   361      190.0000      200.0000  1109978    5.26%
    716   110      198.9375   343      190.0000      200.0000  1120911    5.26%
    725   119      198.0000   374      190.0000      200.0000  1132599    5.26%
    735   124      198.9200   368      190.0000      200.0000  1144080    5.26%
Elapsed time = 488.31 sec. (516485.20 ticks, tree = 0.30 MB, solutions = 3)
    742   131      198.0000   387      190.0000      200.0000  1157040    5.26%
    751   138      198.0000   247      190.0000      200.0000  1170924    5.26%
    757   140      198.0000   210      190.0000      200.0000  1188929    5.26%
    762   144      198.0000   305      190.0000      200.0000  1207392    5.26%
    768   150      197.8235   279      190.0000      200.0000  1224989    5.26%
    774   156      198.0000   321      190.0000      200.0000  1244577    5.26%
    782   162      197.0000   174      190.0000      200.0000  1258806    5.26%
    791   167      197.0000   206      190.0000      200.0000  1277282    5.26%
    798   172      197.0000   175      190.0000      200.0000  1293589    5.26%
    808   176    infeasible            190.0000      200.0000  1309148    5.26%
Elapsed time = 526.78 sec. (558256.81 ticks, tree = 0.41 MB, solutions = 3)
    815   180      197.0000   215      190.0000      200.0000  1327347    5.26%
    823   180      197.0000   271      190.0000      200.0000  1345563    5.26%
    830   185      197.0000   181      190.0000      200.0000  1359747    5.26%
    841   189      197.0000   200      190.0000      200.0000  1376450    5.26%
    850   195      197.0000   184      190.0000      200.0000  1394964    5.26%
    861   201      197.0000   139      190.0000      200.0000  1412610    5.26%
    868   203      197.0000   163      190.0000      200.0000  1425852    5.26%
    876   208      197.0000   186      190.0000      200.0000  1444394    5.26%
    886   210      197.0000   205      190.0000      200.0000  1466510    5.26%
Starting limited solution polishing.
    898   214      196.5421   243      190.0000      200.0000  1484167    5.26%
Elapsed time = 565.98 sec. (599328.27 ticks, tree = 0.49 MB, solutions = 3)
    924   219      195.2200   183      190.0000      200.0000  1489920    5.26%
    936   225      193.0000   153      190.0000      200.0000  1505563    5.26%
    947   228      193.0000   112      190.0000      200.0000  1526610    5.26%
    954   228      199.7500   315      190.0000      200.0000  1544393    5.26%
    959   232      199.4387   373      190.0000      200.0000  1561203    5.26%
    968   239      192.0000   345      190.0000      200.0000  1575883    5.26%
    973   244      198.0000   227      190.0000      200.0000  1594775    5.26%

Clique cuts applied:  7
Zero-half cuts applied:  23
Gomory fractional cuts applied:  6

Root node processing (before b&c):
  Real time             =   31.10 sec. (33440.13 ticks)
Sequential b&c:
  Real time             =  567.50 sec. (600781.41 ticks)
                          ------------
Total (root+branch&cut) =  598.59 sec. (634221.54 ticks)
Primal:	190
Dual:	200
Status:	Feasible
Time:	598.56
Sequence:
	22
	8
	14
	10
	17
	1
	20
	8
	14
	10
	17
	0
	22
	8
	14
	10
	17
	1
	22
	6
	14
	10
	15
	6
	22
	0
	17
	12
	14
	8
	17
	3
	19
	6
	16
	8
	14
	6
	18
	4
	19
	6
	16
	7
	17
	2
	17
	8
	16
	8
	17
	3
	17
	8
	16
	6
	9
	14
	10
	8
	14
	13
	6
	14
	6
	16
	9
	17
	4
	17
	6
	14
	7
	12
	14
	8
	6
	14
	12
	14
	9
	14
	6
	19
	2
	18
	8
	14
	10
	15
	7
	15
	10
	14
	6
	15
	9
	14
	10
	6
	14
	6
	5
	14
	8
	14
	10
	7
	14
	12
	6
	14
	5
	17
	8
	16
	6
	17
	5
	17
	8
	16
	6
	18
	4
	19
	6
	16
	7
	19
	4
	17
	6
	3
	14
	8
	15
	10
	6
	14
	8
	14
	11
	14
	6
	19
	4
	18
	6
	16
	6
	15
	11
	15
	6
	17
	4
	17
	9
	16
	6
	19
	2
	18
	8
	16
	8
	17
	0
	20
	6
	15
	10
	14
	6
	16
	8
	17
	5
	17
	6
	14
	8
	17
	2
	17
	7
	15
	6
	20
